Problem:    redesdeatividade
Rows:       8
Columns:    6
Non-zeros:  16
Status:     OPTIMAL
Objective:  tempo = 38 (MINimum)

   No.   Row name   St   Activity     Lower bound   Upper bound    Marginal
------ ------------ -- ------------- ------------- ------------- -------------
     1 tempo        B             38                             
     2 a            B              9             6               
     3 b            NL             9             9                           1 
     4 fict         NL             0            -0                           1 
     5 c            B             17             8               
     6 d            NL             7             7                           1 
     7 e            NL            10            10                           1 
     8 f            NL            12            12                           1 

   No. Column name  St   Activity     Lower bound   Upper bound    Marginal
------ ------------ -- ------------- ------------- ------------- -------------
     1 x1           NL             0             0                       < eps
     2 x2           B              9             0               
     3 x3           B              9             0               
     4 x4           B             16             0               
     5 x5           B             26             0               
     6 x6           B             38             0               

Karush-Kuhn-Tucker optimality conditions:

KKT.PE: max.abs.err = 0.00e+00 on row 0
        max.rel.err = 0.00e+00 on row 0
        High quality

KKT.PB: max.abs.err = 0.00e+00 on row 0
        max.rel.err = 0.00e+00 on row 0
        High quality

KKT.DE: max.abs.err = 0.00e+00 on column 0
        max.rel.err = 0.00e+00 on column 0
        High quality

KKT.DB: max.abs.err = 0.00e+00 on row 0
        max.rel.err = 0.00e+00 on row 0
        High quality

End of output
